language Essence 1.3
letting nnodes be 13
letting nrings be 7
letting capacity be 5
letting demand be {{1, 6},
{1, 8},
{1, 10},
{1, 11},
{1, 12},
{2, 4},
{2, 5},
{2, 6},
{3, 6},
{3, 13},
{4, 5},
{4, 6},
{4, 7},
{4, 8},
{4, 13},
{5, 6},
{5, 7},
{6, 8},
{6, 9},
{6, 10},
{7, 10},
{8, 12},
{10, 11},
{11, 12}}
